LatticeConstant 1.0 Ang
%block LatticeVectors
 14.29957400 0.00000000 0.00000000
 0.00000000 14.96472000 0.00000000
 0.00000000 0.00000000 10.00000000
%endblock LatticeVectors

NumberOfAtoms 12
AtomicCoordinatesFormat Ang
%block AtomicCoordinatesAndAtomicSpecies
 7.14978700 8.87760800 5.00000000 1 #  1: C
 8.35810700 8.17998400 5.00000000 1 #  2: C
 8.35810700 6.78473600 5.00000000 1 #  3: C
 7.14978700 6.08711200 5.00000000 1 #  4: C
 5.94146700 6.78473600 5.00000000 1 #  5: C
 5.94146700 8.17998400 5.00000000 1 #  6: C
 7.14978700 9.96472000 5.00000000 2 #  7: H
 9.29957400 8.72354000 5.00000000 2 #  8: H
 9.29957400 6.24118000 5.00000000 2 #  9: H
 7.14978700 5.00000000 5.00000000 2 # 10: H
 5.00000000 6.24118000 5.00000000 2 # 11: H
 5.00000000 8.72354000 5.00000000 2 # 12: H
%endblock AtomicCoordinatesAndAtomicSpecies

NumberOfSpecies 2
%block ChemicalSpeciesLabel
 1 6 C
 2 1 H
%endblock ChemicalSpeciesLabel

TS.HS.Save true
